language Essence 1.3

letting colouring be
        function(0 --> 5, 1 --> 16, 2 --> 21, 3 --> 8, 4 --> 18, 5 --> 2, 6 --> 10, 7 --> 1, 8 --> 19, 9 --> 0,
                 10 --> 7, 11 --> 22)
letting edgeID be
        function(0 --> 11, 1 --> 5, 2 --> 13, 3 --> 10, 4 --> 16, 5 --> 8, 6 --> 9, 7 --> 18, 8 --> 19, 9 --> 7,
                 10 --> 2, 11 --> 17, 12 --> 6, 13 --> 1, 14 --> 14, 15 --> 4, 16 --> 20, 17 --> 12, 18 --> 21,
                 19 --> 3, 20 --> 22, 21 --> 15)
